;(set-option :produce-unsat-cores true )
(set-logic ALL_SUPPORTED )
(declare-sort A$ 0 )
(declare-sort Nat$ 0 )
(declare-sort A_a_fun$ 0 )
(declare-sort A_bool_fun$ 0 )
(declare-sort A_a_prod_bool_fun$ 0 )
(declare-sort A_llist_a_llist_fun$ 0 )
(declare-sort A_a_prod_a_a_prod_fun$ 0 )
(declare-sort A_a_a_prod_prod_bool_fun$ 0 )
(declare-sort A_a_prod_a_prod_bool_fun$ 0 )
(declare-sort A_a_prod_a_a_prod_prod_bool_fun$ 0 )
(declare-sort A_a_prod_llist_a_a_prod_llist_fun$ 0 )
(declare-sort A_a_a_prod_prod_a_a_a_prod_prod_fun$ 0 )
(declare-sort A_a_prod_a_prod_a_a_prod_a_prod_fun$ 0 )
(declare-sort A_a_prod_a_a_prod_prod_a_a_prod_a_a_prod_prod_fun$ 0 )
(declare-sort A_llist$ 0)
(declare-fun lNil$ ()A_llist$)
(declare-fun lhd$ (A_llist$)A$)
(declare-fun ltl$ (A_llist$)A_llist$)
(declare-fun lCons$ (A$ A_llist$ )A_llist$)
(declare-sort Nat_option$ 0)
(declare-sort Enat$ 0)
(declare-sort A_a_prod$ 0)
(declare-fun none$ ()Nat_option$)
(declare-fun the$ (Nat_option$)Nat$)
(declare-fun some$ (Nat$ )Nat_option$)
(declare-fun rep_enat$ (Enat$)Nat_option$)
(declare-fun abs_enat$ (Nat_option$ )Enat$)
(declare-fun fst$ (A_a_prod$)A$)
(declare-fun snd$ (A_a_prod$)A$)
(declare-fun pair$ (A$ A$ )A_a_prod$)
(declare-sort A_a_prod_llist$ 0)
(declare-fun lNil$a ()A_a_prod_llist$)
(declare-fun lhd$a (A_a_prod_llist$)A_a_prod$)
(declare-fun ltl$a (A_a_prod_llist$)A_a_prod_llist$)
(declare-fun lCons$a (A_a_prod$ A_a_prod_llist$ )A_a_prod_llist$)
(declare-sort A_a_prod_a_a_prod_prod$ 0)
(declare-fun fst$a (A_a_prod_a_a_prod_prod$)A_a_prod$)
(declare-fun snd$a (A_a_prod_a_a_prod_prod$)A_a_prod$)
(declare-fun pair$a (A_a_prod$ A_a_prod$ )A_a_prod_a_a_prod_prod$)
(declare-sort A_a_prod_a_a_prod_prod_llist$ 0)
(declare-fun lNil$b ()A_a_prod_a_a_prod_prod_llist$)
(declare-fun lhd$b (A_a_prod_a_a_prod_prod_llist$)A_a_prod_a_a_prod_prod$)
(declare-fun ltl$b (A_a_prod_a_a_prod_prod_llist$)A_a_prod_a_a_prod_prod_llist$)
(declare-fun lCons$b (A_a_prod_a_a_prod_prod$ A_a_prod_a_a_prod_prod_llist$ )A_a_prod_a_a_prod_prod_llist$)
(declare-sort A_a_prod_a_prod$ 0)
(declare-fun fst$b (A_a_prod_a_prod$)A_a_prod$)
(declare-fun snd$b (A_a_prod_a_prod$)A$)
(declare-fun pair$b (A_a_prod$ A$ )A_a_prod_a_prod$)
(declare-sort A_a_prod_a_prod_llist$ 0)
(declare-fun lNil$c ()A_a_prod_a_prod_llist$)
(declare-fun lhd$c (A_a_prod_a_prod_llist$)A_a_prod_a_prod$)
(declare-fun ltl$c (A_a_prod_a_prod_llist$)A_a_prod_a_prod_llist$)
(declare-fun lCons$c (A_a_prod_a_prod$ A_a_prod_a_prod_llist$ )A_a_prod_a_prod_llist$)
(declare-sort A_a_a_prod_prod$ 0)
(declare-fun fst$c (A_a_a_prod_prod$)A$)
(declare-fun snd$c (A_a_a_prod_prod$)A_a_prod$)
(declare-fun pair$c (A$ A_a_prod$ )A_a_a_prod_prod$)
(declare-sort A_a_a_prod_prod_llist$ 0)
(declare-fun lNil$d ()A_a_a_prod_prod_llist$)
(declare-fun lhd$d (A_a_a_prod_prod_llist$)A_a_a_prod_prod$)
(declare-fun ltl$d (A_a_a_prod_prod_llist$)A_a_a_prod_prod_llist$)
(declare-fun lCons$d (A_a_a_prod_prod$ A_a_a_prod_prod_llist$ )A_a_a_prod_prod_llist$)
(declare-sort A_a_a_prod_a_prod_prod$ 0)
(declare-fun fst$d (A_a_a_prod_a_prod_prod$)A$)
(declare-fun snd$d (A_a_a_prod_a_prod_prod$)A_a_prod_a_prod$)
(declare-fun pair$d (A$ A_a_prod_a_prod$ )A_a_a_prod_a_prod_prod$)
(declare-sort A_a_a_prod_a_prod_prod_llist$ 0)
(declare-fun lNil$e ()A_a_a_prod_a_prod_prod_llist$)
(declare-fun lhd$e (A_a_a_prod_a_prod_prod_llist$)A_a_a_prod_a_prod_prod$)
(declare-fun ltl$e (A_a_a_prod_a_prod_prod_llist$)A_a_a_prod_a_prod_prod_llist$)
(declare-fun lCons$e (A_a_a_prod_a_prod_prod$ A_a_a_prod_a_prod_prod_llist$ )A_a_a_prod_a_prod_prod_llist$)
(declare-sort A_a_a_a_prod_prod_prod$ 0)
(declare-fun fst$e (A_a_a_a_prod_prod_prod$)A$)
(declare-fun snd$e (A_a_a_a_prod_prod_prod$)A_a_a_prod_prod$)
(declare-fun pair$e (A$ A_a_a_prod_prod$ )A_a_a_a_prod_prod_prod$)
(declare-sort A_a_a_a_prod_prod_prod_llist$ 0)
(declare-fun lNil$f ()A_a_a_a_prod_prod_prod_llist$)
(declare-fun lhd$f (A_a_a_a_prod_prod_prod_llist$)A_a_a_a_prod_prod_prod$)
(declare-fun ltl$f (A_a_a_a_prod_prod_prod_llist$)A_a_a_a_prod_prod_prod_llist$)
(declare-fun lCons$f (A_a_a_a_prod_prod_prod$ A_a_a_a_prod_prod_prod_llist$ )A_a_a_a_prod_prod_prod_llist$)
(declare-sort A_a_prod_a_prod_a_prod$ 0)
(declare-fun fst$f (A_a_prod_a_prod_a_prod$)A_a_prod_a_prod$)
(declare-fun snd$f (A_a_prod_a_prod_a_prod$)A$)
(declare-fun pair$f (A_a_prod_a_prod$ A$ )A_a_prod_a_prod_a_prod$)
(declare-sort A_a_prod_a_prod_a_prod_llist$ 0)
(declare-fun lNil$g ()A_a_prod_a_prod_a_prod_llist$)
(declare-fun lhd$g (A_a_prod_a_prod_a_prod_llist$)A_a_prod_a_prod_a_prod$)
(declare-fun ltl$g (A_a_prod_a_prod_a_prod_llist$)A_a_prod_a_prod_a_prod_llist$)
(declare-fun lCons$g (A_a_prod_a_prod_a_prod$ A_a_prod_a_prod_a_prod_llist$ )A_a_prod_a_prod_a_prod_llist$)
(declare-sort A_a_a_prod_prod_a_prod$ 0)
(declare-fun fst$g (A_a_a_prod_prod_a_prod$)A_a_a_prod_prod$)
(declare-fun snd$g (A_a_a_prod_prod_a_prod$)A$)
(declare-fun pair$g (A_a_a_prod_prod$ A$ )A_a_a_prod_prod_a_prod$)
(declare-sort A_a_a_prod_prod_a_prod_llist$ 0)
(declare-fun lNil$h ()A_a_a_prod_prod_a_prod_llist$)
(declare-fun lhd$h (A_a_a_prod_prod_a_prod_llist$)A_a_a_prod_prod_a_prod$)
(declare-fun ltl$h (A_a_a_prod_prod_a_prod_llist$)A_a_a_prod_prod_a_prod_llist$)
(declare-fun lCons$h (A_a_a_prod_prod_a_prod$ A_a_a_prod_prod_a_prod_llist$ )A_a_a_prod_prod_a_prod_llist$)
(declare-sort A_a_a_prod_a_a_prod_prod_prod$ 0)
(declare-fun fst$h (A_a_a_prod_a_a_prod_prod_prod$)A$)
(declare-fun snd$h (A_a_a_prod_a_a_prod_prod_prod$)A_a_prod_a_a_prod_prod$)
(declare-fun pair$h (A$ A_a_prod_a_a_prod_prod$ )A_a_a_prod_a_a_prod_prod_prod$)
(declare-sort A_a_a_prod_a_a_prod_prod_prod_llist$ 0)
(declare-fun lNil$i ()A_a_a_prod_a_a_prod_prod_prod_llist$)
(declare-fun lhd$i (A_a_a_prod_a_a_prod_prod_prod_llist$)A_a_a_prod_a_a_prod_prod_prod$)
(declare-fun ltl$i (A_a_a_prod_a_a_prod_prod_prod_llist$)A_a_a_prod_a_a_prod_prod_prod_llist$)
(declare-fun lCons$i (A_a_a_prod_a_a_prod_prod_prod$ A_a_a_prod_a_a_prod_prod_prod_llist$ )A_a_a_prod_a_a_prod_prod_prod_llist$)
(declare-sort A_a_prod_a_a_prod_a_prod_prod$ 0)
(declare-fun fst$i (A_a_prod_a_a_prod_a_prod_prod$)A_a_prod$)
(declare-fun snd$i (A_a_prod_a_a_prod_a_prod_prod$)A_a_prod_a_prod$)
(declare-fun pair$i (A_a_prod$ A_a_prod_a_prod$ )A_a_prod_a_a_prod_a_prod_prod$)
(declare-sort A_a_prod_a_a_prod_a_prod_prod_llist$ 0)
(declare-fun lNil$j ()A_a_prod_a_a_prod_a_prod_prod_llist$)
(declare-fun lhd$j (A_a_prod_a_a_prod_a_prod_prod_llist$)A_a_prod_a_a_prod_a_prod_prod$)
(declare-fun ltl$j (A_a_prod_a_a_prod_a_prod_prod_llist$)A_a_prod_a_a_prod_a_prod_prod_llist$)
(declare-fun lCons$j (A_a_prod_a_a_prod_a_prod_prod$ A_a_prod_a_a_prod_a_prod_prod_llist$ )A_a_prod_a_a_prod_a_prod_prod_llist$)
(declare-fun p$ ()A_bool_fun$ )
(declare-fun xs$ ()A_llist$ )
(declare-fun lzip$ (A_llist$ A_llist$ )A_a_prod_llist$ )
(declare-fun lzip$a (A_llist$ A_a_prod_llist$ )A_a_a_prod_prod_llist$ )
(declare-fun lzip$b (A_a_prod_llist$ A_llist$ )A_a_prod_a_prod_llist$ )
(declare-fun lzip$c (A_a_prod_llist$ A_a_prod_llist$ )A_a_prod_a_a_prod_prod_llist$ )
(declare-fun lzip$d (A_llist$ A_a_prod_a_prod_llist$ )A_a_a_prod_a_prod_prod_llist$ )
(declare-fun lzip$e (A_llist$ A_a_a_prod_prod_llist$ )A_a_a_a_prod_prod_prod_llist$ )
(declare-fun lzip$f (A_a_prod_a_prod_llist$ A_llist$ )A_a_prod_a_prod_a_prod_llist$ )
(declare-fun lzip$g (A_a_a_prod_prod_llist$ A_llist$ )A_a_a_prod_prod_a_prod_llist$ )
(declare-fun lzip$h (A_llist$ A_a_prod_a_a_prod_prod_llist$ )A_a_a_prod_a_a_prod_prod_prod_llist$ )
(declare-fun lzip$i (A_a_prod_llist$ A_a_prod_a_prod_llist$ )A_a_prod_a_a_prod_a_prod_prod_llist$ )
(declare-fun ldropn$ (Nat$ A_a_prod_a_a_prod_prod_llist$ )A_a_prod_a_a_prod_prod_llist$ )
(declare-fun fun_app$ (A_llist_a_llist_fun$ A_llist$ )A_llist$ )
(declare-fun lappend$ (A_a_prod_a_a_prod_prod_llist$ A_a_prod_a_a_prod_prod_llist$ )A_a_prod_a_a_prod_prod_llist$ )
(declare-fun ldropn$a (Nat$ A_a_prod_a_prod_llist$ )A_a_prod_a_prod_llist$ )
(declare-fun ldropn$b (Nat$ A_a_a_prod_prod_llist$ )A_a_a_prod_prod_llist$ )
(declare-fun ldropn$c (Nat$ A_a_prod_llist$ )A_a_prod_llist$ )
(declare-fun ldropn$d (Nat$ A_llist$ )A_llist$ )
(declare-fun less_eq$ (Enat$ Enat$ )Bool )
(declare-fun lfilter$ (A_bool_fun$ )A_llist_a_llist_fun$ )
(declare-fun lfinite$ (A_llist$ )Bool )
(declare-fun llength$ (A_llist$ )Enat$ )
(declare-fun fun_app$a (A_a_prod_llist_a_a_prod_llist_fun$ A_a_prod_llist$ )A_a_prod_llist$ )
(declare-fun fun_app$b (A_a_prod_bool_fun$ A_a_prod$ )Bool )
(declare-fun fun_app$c (A_bool_fun$ A$ )Bool )
(declare-fun iterates$ (A_a_prod_a_a_prod_prod_a_a_prod_a_a_prod_prod_fun$ A_a_prod_a_a_prod_prod$ )A_a_prod_a_a_prod_prod_llist$ )
(declare-fun lappend$a (A_a_prod_a_prod_llist$ A_a_prod_a_prod_llist$ )A_a_prod_a_prod_llist$ )
(declare-fun lappend$b (A_a_a_prod_prod_llist$ A_a_a_prod_prod_llist$ )A_a_a_prod_prod_llist$ )
(declare-fun lappend$c (A_a_prod_llist$ A_a_prod_llist$ )A_a_prod_llist$ )
(declare-fun lappend$d (A_llist$ A_llist$ )A_llist$ )
(declare-fun lfilter$a (A_a_prod_bool_fun$ )A_a_prod_llist_a_a_prod_llist_fun$ )
(declare-fun lfilter$b (A_a_prod_a_a_prod_prod_bool_fun$ A_a_prod_a_a_prod_prod_llist$ )A_a_prod_a_a_prod_prod_llist$ )
(declare-fun lfilter$c (A_a_prod_a_prod_bool_fun$ A_a_prod_a_prod_llist$ )A_a_prod_a_prod_llist$ )
(declare-fun lfilter$d (A_a_a_prod_prod_bool_fun$ A_a_a_prod_prod_llist$ )A_a_a_prod_prod_llist$ )
(declare-fun lfinite$a (A_a_prod_a_a_prod_prod_llist$ )Bool )
(declare-fun lfinite$b (A_a_prod_a_prod_llist$ )Bool )
(declare-fun lfinite$c (A_a_a_prod_prod_llist$ )Bool )
(declare-fun lfinite$d (A_a_prod_llist$ )Bool )
(declare-fun lfinite$e (A_a_a_prod_a_prod_prod_llist$ )Bool )
(declare-fun lfinite$f (A_a_a_a_prod_prod_prod_llist$ )Bool )
(declare-fun lfinite$g (A_a_prod_a_prod_a_prod_llist$ )Bool )
(declare-fun lfinite$h (A_a_a_prod_prod_a_prod_llist$ )Bool )
(declare-fun lfinite$i (A_a_a_prod_a_a_prod_prod_prod_llist$ )Bool )
(declare-fun lfinite$j (A_a_prod_a_a_prod_a_prod_prod_llist$ )Bool )
(declare-fun llength$a (A_a_prod_llist$ )Enat$ )
(declare-fun iterates$a (A_a_prod_a_prod_a_a_prod_a_prod_fun$ A_a_prod_a_prod$ )A_a_prod_a_prod_llist$ )
(declare-fun iterates$b (A_a_a_prod_prod_a_a_a_prod_prod_fun$ A_a_a_prod_prod$ )A_a_a_prod_prod_llist$ )
(declare-fun iterates$c (A_a_prod_a_a_prod_fun$ A_a_prod$ )A_a_prod_llist$ )
(declare-fun iterates$d (A_a_fun$ A$ )A_llist$ )
(declare-fun lstrict_prefix$ (A_a_prod_a_a_prod_prod_llist$ A_a_prod_a_a_prod_prod_llist$ )Bool )
(declare-fun lstrict_prefix$a (A_a_prod_a_prod_llist$ A_a_prod_a_prod_llist$ )Bool )
(declare-fun lstrict_prefix$b (A_a_a_prod_prod_llist$ A_a_a_prod_prod_llist$ )Bool )
(declare-fun lstrict_prefix$c (A_a_prod_llist$ A_a_prod_llist$ )Bool )
(declare-fun lstrict_prefix$d (A_llist$ A_llist$ )Bool )
(assert (! (not (lfinite$ (fun_app$ (lfilter$ p$ )xs$ ))):named a0 ))
(assert (! (lfinite$ xs$ ):named a1 ))
(assert (! (less_eq$ (llength$ (fun_app$ (lfilter$ p$ )xs$ ))(llength$ xs$ )):named a2 ))
(assert (! (forall ((?v0 A_a_prod_bool_fun$ )(?v1 A_a_prod_llist$ ))(= (fun_app$a (lfilter$a ?v0 )(fun_app$a (lfilter$a ?v0 )?v1 ))(fun_app$a (lfilter$a ?v0 )?v1 ))):named a3 ))
(assert (! (forall ((?v0 A_bool_fun$ )(?v1 A_llist$ ))(= (fun_app$ (lfilter$ ?v0 )(fun_app$ (lfilter$ ?v0 )?v1 ))(fun_app$ (lfilter$ ?v0 )?v1 ))):named a4 ))
(assert (! (forall ((?v0 A_a_prod_a_a_prod_prod_llist$ )(?v1 A_a_prod_a_a_prod_prod_bool_fun$ ))(=> (lfinite$a ?v0 )(lfinite$a (lfilter$b ?v1 ?v0 )))):named a5 ))
(assert (! (forall ((?v0 A_a_prod_a_prod_llist$ )(?v1 A_a_prod_a_prod_bool_fun$ ))(=> (lfinite$b ?v0 )(lfinite$b (lfilter$c ?v1 ?v0 )))):named a6 ))
(assert (! (forall ((?v0 A_a_a_prod_prod_llist$ )(?v1 A_a_a_prod_prod_bool_fun$ ))(=> (lfinite$c ?v0 )(lfinite$c (lfilter$d ?v1 ?v0 )))):named a7 ))
(assert (! (forall ((?v0 A_a_prod_llist$ )(?v1 A_a_prod_bool_fun$ ))(=> (lfinite$d ?v0 )(lfinite$d (fun_app$a (lfilter$a ?v1 )?v0 )))):named a8 ))
(assert (! (forall ((?v0 A_llist$ )(?v1 A_bool_fun$ ))(=> (lfinite$ ?v0 )(lfinite$ (fun_app$ (lfilter$ ?v1 )?v0 )))):named a9 ))
(assert (! (forall ((?v0 A_a_prod_bool_fun$ )(?v1 A_a_prod_llist$ ))(less_eq$ (llength$a (fun_app$a (lfilter$a ?v0 )?v1 ))(llength$a ?v1 ))):named a10 ))
(assert (! (forall ((?v0 A_bool_fun$ )(?v1 A_llist$ ))(less_eq$ (llength$ (fun_app$ (lfilter$ ?v0 )?v1 ))(llength$ ?v1 ))):named a11 ))
(assert (! (forall ((?v0 A_a_prod_a_a_prod_prod_llist$ )(?v1 A_a_prod_a_a_prod_prod_bool_fun$ )(?v2 A_a_prod_a_a_prod_prod_llist$ ))(=> (lfinite$a ?v0 )(= (lfilter$b ?v1 (lappend$ ?v0 ?v2 ))(lappend$ (lfilter$b ?v1 ?v0 )(lfilter$b ?v1 ?v2 ))))):named a12 ))
(assert (! (forall ((?v0 A_a_prod_a_prod_llist$ )(?v1 A_a_prod_a_prod_bool_fun$ )(?v2 A_a_prod_a_prod_llist$ ))(=> (lfinite$b ?v0 )(= (lfilter$c ?v1 (lappend$a ?v0 ?v2 ))(lappend$a (lfilter$c ?v1 ?v0 )(lfilter$c ?v1 ?v2 ))))):named a13 ))
(assert (! (forall ((?v0 A_a_a_prod_prod_llist$ )(?v1 A_a_a_prod_prod_bool_fun$ )(?v2 A_a_a_prod_prod_llist$ ))(=> (lfinite$c ?v0 )(= (lfilter$d ?v1 (lappend$b ?v0 ?v2 ))(lappend$b (lfilter$d ?v1 ?v0 )(lfilter$d ?v1 ?v2 ))))):named a14 ))
(assert (! (forall ((?v0 A_a_prod_llist$ )(?v1 A_a_prod_bool_fun$ )(?v2 A_a_prod_llist$ ))(=> (lfinite$d ?v0 )(= (fun_app$a (lfilter$a ?v1 )(lappend$c ?v0 ?v2 ))(lappend$c (fun_app$a (lfilter$a ?v1 )?v0 )(fun_app$a (lfilter$a ?v1 )?v2 ))))):named a15 ))
(assert (! (forall ((?v0 A_llist$ )(?v1 A_bool_fun$ )(?v2 A_llist$ ))(=> (lfinite$ ?v0 )(= (fun_app$ (lfilter$ ?v1 )(lappend$d ?v0 ?v2 ))(lappend$d (fun_app$ (lfilter$ ?v1 )?v0 )(fun_app$ (lfilter$ ?v1 )?v2 ))))):named a16 ))
(assert (! (forall ((?v0 A_a_prod_a_a_prod_prod_llist$ )(?v1 A_a_prod_a_a_prod_prod_llist$ ))(=> (lstrict_prefix$ ?v0 ?v1 )(lfinite$a ?v0 ))):named a17 ))
(assert (! (forall ((?v0 A_a_prod_a_prod_llist$ )(?v1 A_a_prod_a_prod_llist$ ))(=> (lstrict_prefix$a ?v0 ?v1 )(lfinite$b ?v0 ))):named a18 ))
(assert (! (forall ((?v0 A_a_a_prod_prod_llist$ )(?v1 A_a_a_prod_prod_llist$ ))(=> (lstrict_prefix$b ?v0 ?v1 )(lfinite$c ?v0 ))):named a19 ))
(assert (! (forall ((?v0 A_a_prod_llist$ )(?v1 A_a_prod_llist$ ))(=> (lstrict_prefix$c ?v0 ?v1 )(lfinite$d ?v0 ))):named a20 ))
(assert (! (forall ((?v0 A_llist$ )(?v1 A_llist$ ))(=> (lstrict_prefix$d ?v0 ?v1 )(lfinite$ ?v0 ))):named a21 ))
(assert (! (forall ((?v0 A_a_prod_bool_fun$ ))(! (= (fun_app$a (lfilter$a ?v0 )lNil$a )lNil$a ):pattern ((lfilter$a ?v0 )))):named a22 ))
(assert (! (forall ((?v0 A_bool_fun$ ))(! (= (fun_app$ (lfilter$ ?v0 )lNil$ )lNil$ ):pattern ((lfilter$ ?v0 )))):named a23 ))
(assert (! (forall ((?v0 Nat$ )(?v1 A_a_prod_a_a_prod_prod_llist$ ))(= (lfinite$a (ldropn$ ?v0 ?v1 ))(lfinite$a ?v1 ))):named a24 ))
(assert (! (forall ((?v0 Nat$ )(?v1 A_a_prod_a_prod_llist$ ))(= (lfinite$b (ldropn$a ?v0 ?v1 ))(lfinite$b ?v1 ))):named a25 ))
(assert (! (forall ((?v0 Nat$ )(?v1 A_a_a_prod_prod_llist$ ))(= (lfinite$c (ldropn$b ?v0 ?v1 ))(lfinite$c ?v1 ))):named a26 ))
(assert (! (forall ((?v0 Nat$ )(?v1 A_a_prod_llist$ ))(= (lfinite$d (ldropn$c ?v0 ?v1 ))(lfinite$d ?v1 ))):named a27 ))
(assert (! (forall ((?v0 Nat$ )(?v1 A_llist$ ))(= (lfinite$ (ldropn$d ?v0 ?v1 ))(lfinite$ ?v1 ))):named a28 ))
(assert (! (forall ((?v0 A_a_prod_bool_fun$ )(?v1 A_a_prod$ )(?v2 A_a_prod_llist$ ))(! (= (fun_app$a (lfilter$a ?v0 )(lCons$a ?v1 ?v2 ))(ite (fun_app$b ?v0 ?v1 )(lCons$a ?v1 (fun_app$a (lfilter$a ?v0 )?v2 ))(fun_app$a (lfilter$a ?v0 )?v2 ))):pattern ((fun_app$a (lfilter$a ?v0 )(lCons$a ?v1 ?v2 ))))):named a29 ))
(assert (! (forall ((?v0 A_bool_fun$ )(?v1 A$ )(?v2 A_llist$ ))(! (= (fun_app$ (lfilter$ ?v0 )(lCons$ ?v1 ?v2 ))(ite (fun_app$c ?v0 ?v1 )(lCons$ ?v1 (fun_app$ (lfilter$ ?v0 )?v2 ))(fun_app$ (lfilter$ ?v0 )?v2 ))):pattern ((fun_app$ (lfilter$ ?v0 )(lCons$ ?v1 ?v2 ))))):named a30 ))
(assert (! (= (lfinite$a lNil$b )true ):named a31 ))
(assert (! (= (lfinite$b lNil$c )true ):named a32 ))
(assert (! (= (lfinite$c lNil$d )true ):named a33 ))
(assert (! (= (lfinite$d lNil$a )true ):named a34 ))
(assert (! (= (lfinite$ lNil$ )true ):named a35 ))
(assert (! (forall ((?v0 A_a_prod_a_a_prod_prod_a_a_prod_a_a_prod_prod_fun$ )(?v1 A_a_prod_a_a_prod_prod$ ))(not (lfinite$a (iterates$ ?v0 ?v1 )))):named a36 ))
(assert (! (forall ((?v0 A_a_prod_a_prod_a_a_prod_a_prod_fun$ )(?v1 A_a_prod_a_prod$ ))(not (lfinite$b (iterates$a ?v0 ?v1 )))):named a37 ))
(assert (! (forall ((?v0 A_a_a_prod_prod_a_a_a_prod_prod_fun$ )(?v1 A_a_a_prod_prod$ ))(not (lfinite$c (iterates$b ?v0 ?v1 )))):named a38 ))
(assert (! (forall ((?v0 A_a_prod_a_a_prod_fun$ )(?v1 A_a_prod$ ))(not (lfinite$d (iterates$c ?v0 ?v1 )))):named a39 ))
(assert (! (forall ((?v0 A_a_fun$ )(?v1 A$ ))(not (lfinite$ (iterates$d ?v0 ?v1 )))):named a40 ))
(assert (! (forall ((?v0 A_llist$ )(?v1 A_llist$ ))(= (lfinite$d (lzip$ ?v0 ?v1 ))(or (lfinite$ ?v0 )(lfinite$ ?v1 )))):named a41 ))
(assert (! (forall ((?v0 A_llist$ )(?v1 A_a_prod_llist$ ))(= (lfinite$c (lzip$a ?v0 ?v1 ))(or (lfinite$ ?v0 )(lfinite$d ?v1 )))):named a42 ))
(assert (! (forall ((?v0 A_a_prod_llist$ )(?v1 A_llist$ ))(= (lfinite$b (lzip$b ?v0 ?v1 ))(or (lfinite$d ?v0 )(lfinite$ ?v1 )))):named a43 ))
(assert (! (forall ((?v0 A_a_prod_llist$ )(?v1 A_a_prod_llist$ ))(= (lfinite$a (lzip$c ?v0 ?v1 ))(or (lfinite$d ?v0 )(lfinite$d ?v1 )))):named a44 ))
(assert (! (forall ((?v0 A_llist$ )(?v1 A_a_prod_a_prod_llist$ ))(= (lfinite$e (lzip$d ?v0 ?v1 ))(or (lfinite$ ?v0 )(lfinite$b ?v1 )))):named a45 ))
(assert (! (forall ((?v0 A_llist$ )(?v1 A_a_a_prod_prod_llist$ ))(= (lfinite$f (lzip$e ?v0 ?v1 ))(or (lfinite$ ?v0 )(lfinite$c ?v1 )))):named a46 ))
(assert (! (forall ((?v0 A_a_prod_a_prod_llist$ )(?v1 A_llist$ ))(= (lfinite$g (lzip$f ?v0 ?v1 ))(or (lfinite$b ?v0 )(lfinite$ ?v1 )))):named a47 ))
(assert (! (forall ((?v0 A_a_a_prod_prod_llist$ )(?v1 A_llist$ ))(= (lfinite$h (lzip$g ?v0 ?v1 ))(or (lfinite$c ?v0 )(lfinite$ ?v1 )))):named a48 ))
(assert (! (forall ((?v0 A_llist$ )(?v1 A_a_prod_a_a_prod_prod_llist$ ))(= (lfinite$i (lzip$h ?v0 ?v1 ))(or (lfinite$ ?v0 )(lfinite$a ?v1 )))):named a49 ))
(assert (! (forall ((?v0 A_a_prod_llist$ )(?v1 A_a_prod_a_prod_llist$ ))(= (lfinite$j (lzip$i ?v0 ?v1 ))(or (lfinite$d ?v0 )(lfinite$b ?v1 )))):named a50 ))
(assert (! (forall ((?v0 A_a_prod_a_a_prod_prod$ )(?v1 A_a_prod_a_a_prod_prod_llist$ ))(! (= (lfinite$a (lCons$b ?v0 ?v1 ))(lfinite$a ?v1 )):pattern ((lCons$b ?v0 ?v1 )))):named a51 ))
(assert (! (forall ((?v0 A_a_prod_a_prod$ )(?v1 A_a_prod_a_prod_llist$ ))(! (= (lfinite$b (lCons$c ?v0 ?v1 ))(lfinite$b ?v1 )):pattern ((lCons$c ?v0 ?v1 )))):named a52 ))
(assert (! (forall ((?v0 A_a_a_prod_prod$ )(?v1 A_a_a_prod_prod_llist$ ))(! (= (lfinite$c (lCons$d ?v0 ?v1 ))(lfinite$c ?v1 )):pattern ((lCons$d ?v0 ?v1 )))):named a53 ))
(assert (! (forall ((?v0 A_a_prod$ )(?v1 A_a_prod_llist$ ))(! (= (lfinite$d (lCons$a ?v0 ?v1 ))(lfinite$d ?v1 )):pattern ((lCons$a ?v0 ?v1 )))):named a54 ))
(assert (! (forall ((?v0 A$ )(?v1 A_llist$ ))(! (= (lfinite$ (lCons$ ?v0 ?v1 ))(lfinite$ ?v1 )):pattern ((lCons$ ?v0 ?v1 )))):named a55 ))
(assert (! (forall ((?v0 A_a_prod_a_a_prod_prod$ )(?v1 A_a_prod_a_a_prod_prod_llist$ ))(! (= (lfinite$a (lCons$b ?v0 ?v1 ))(lfinite$a ?v1 )):pattern ((lCons$b ?v0 ?v1 )))):named a56 ))
(assert (! (forall ((?v0 A_a_prod_a_prod$ )(?v1 A_a_prod_a_prod_llist$ ))(! (= (lfinite$b (lCons$c ?v0 ?v1 ))(lfinite$b ?v1 )):pattern ((lCons$c ?v0 ?v1 )))):named a57 ))
(assert (! (forall ((?v0 A_a_a_prod_prod$ )(?v1 A_a_a_prod_prod_llist$ ))(! (= (lfinite$c (lCons$d ?v0 ?v1 ))(lfinite$c ?v1 )):pattern ((lCons$d ?v0 ?v1 )))):named a58 ))
(assert (! (forall ((?v0 A_a_prod$ )(?v1 A_a_prod_llist$ ))(! (= (lfinite$d (lCons$a ?v0 ?v1 ))(lfinite$d ?v1 )):pattern ((lCons$a ?v0 ?v1 )))):named a59 ))
(assert (! (forall ((?v0 A$ )(?v1 A_llist$ ))(! (= (lfinite$ (lCons$ ?v0 ?v1 ))(lfinite$ ?v1 )):pattern ((lCons$ ?v0 ?v1 )))):named a60 ))
(assert (! (forall ((?v0 A_a_prod_a_a_prod_prod_llist$ ))(= (lfinite$a (ltl$b ?v0 ))(lfinite$a ?v0 ))):named a61 ))
(assert (! (forall ((?v0 A_a_prod_a_prod_llist$ ))(= (lfinite$b (ltl$c ?v0 ))(lfinite$b ?v0 ))):named a62 ))
(assert (! (forall ((?v0 A_a_a_prod_prod_llist$ ))(= (lfinite$c (ltl$d ?v0 ))(lfinite$c ?v0 ))):named a63 ))
(assert (! (forall ((?v0 A_a_prod_llist$ ))(= (lfinite$d (ltl$a ?v0 ))(lfinite$d ?v0 ))):named a64 ))
(assert (! (forall ((?v0 A_llist$ ))(= (lfinite$ (ltl$ ?v0 ))(lfinite$ ?v0 ))):named a65 ))
(assert (! (forall ((?v0 A_a_prod$ )(?v1 A_a_prod_llist$ )(?v2 A_a_prod$ )(?v3 A_a_prod_llist$ ))(= (= (lCons$a ?v0 ?v1 )(lCons$a ?v2 ?v3 ))(and (= ?v0 ?v2 )(= ?v1 ?v3 )))):named a66 ))
(assert (! (forall ((?v0 A$ )(?v1 A_llist$ )(?v2 A$ )(?v3 A_llist$ ))(= (= (lCons$ ?v0 ?v1 )(lCons$ ?v2 ?v3 ))(and (= ?v0 ?v2 )(= ?v1 ?v3 )))):named a67 ))
(check-sat )
;(get-unsat-core )
